(set-logic QF_S)
(declare-fun _var_0xINPUT_102246_() String)
(declare-fun __woorpje_diseq_pref0_() String)
(declare-fun __woorpje_diseq_suf_l0_() String)
(declare-fun __woorpje_diseq_suf_r0_() String)
(assert (=(str.++ _var_0xINPUT_102246_  "")(str.++ __woorpje_diseq_pref0_  "u" __woorpje_diseq_suf_l0_  "")) )
(assert (=(str.++  "c6E1Du1hWW" "")(str.++ __woorpje_diseq_pref0_  "W" __woorpje_diseq_suf_r0_  "")) )
(check-sat)
